p cnf 200 1110
-101 77 0
-101 -29 0
-101 -83 0
-101 -27 0
-101 -24 0
-101 -12 0
-101 50 0
-101 60 0
-101 -53 0
-101 -87 0
101 -77 29 83 27 24 12 -50 -60 53 87 0
-102 -32 0
-102 -46 0
-102 66 0
-102 43 0
-102 -17 0
-102 -82 0
-102 11 0
-102 15 0
-102 81 0
-102 96 0
102 32 46 -66 -43 17 82 -11 -15 -81 -96 0
-103 -41 0
-103 4 0
-103 -51 0
-103 -64 0
-103 -36 0
-103 -81 0
-103 -48 0
-103 91 0
-103 -47 0
-103 11 0
103 41 -4 51 64 36 81 48 -91 47 -11 0
-104 -74 0
-104 97 0
-104 80 0
-104 16 0
-104 -76 0
-104 -14 0
-104 -50 0
-104 84 0
-104 -10 0
-104 55 0
104 74 -97 -80 -16 76 14 50 -84 10 -55 0
-105 -60 0
-105 14 0
-105 -11 0
-105 -4 0
-105 73 0
-105 81 0
-105 77 0
-105 -45 0
-105 -68 0
-105 -41 0
105 60 -14 11 4 -73 -81 -77 45 68 41 0
-106 -76 0
-106 -67 0
-106 -51 0
-106 12 0
-106 -60 0
-106 -93 0
-106 17 0
-106 -79 0
-106 -14 0
-106 -49 0
106 76 67 51 -12 60 93 -17 79 14 49 0
-107 93 0
-107 17 0
-107 88 0
-107 90 0
-107 -51 0
-107 53 0
-107 86 0
-107 77 0
-107 4 0
-107 -73 0
107 -93 -17 -88 -90 51 -53 -86 -77 -4 73 0
-108 33 0
-108 46 0
-108 67 0
-108 -47 0
-108 -36 0
-108 -5 0
-108 32 0
-108 -99 0
-108 51 0
-108 79 0
108 -33 -46 -67 47 36 5 -32 99 -51 -79 0
-109 -25 0
-109 4 0
-109 58 0
-109 -89 0
-109 61 0
-109 50 0
-109 41 0
-109 -73 0
-109 31 0
-109 -95 0
109 25 -4 -58 89 -61 -50 -41 73 -31 95 0
-110 -55 0
-110 74 0
-110 -65 0
-110 -36 0
-110 59 0
-110 82 0
-110 -83 0
-110 99 0
-110 -8 0
-110 15 0
110 55 -74 65 36 -59 -82 83 -99 8 -15 0
101 102 103 104 105 106 107 108 109 110 0
-111 51 0
-111 22 0
-111 52 0
-111 24 0
-111 -27 0
-111 14 0
-111 71 0
-111 79 0
-111 26 0
-111 -93 0
111 -51 -22 -52 -24 27 -14 -71 -79 -26 93 0
-112 47 0
-112 18 0
-112 -90 0
-112 -98 0
-112 -42 0
-112 -39 0
-112 23 0
-112 -28 0
-112 11 0
-112 25 0
112 -47 -18 90 98 42 39 -23 28 -11 -25 0
-113 43 0
-113 -87 0
-113 -22 0
-113 44 0
-113 -82 0
-113 27 0
-113 38 0
-113 -49 0
-113 36 0
-113 13 0
113 -43 87 22 -44 82 -27 -38 49 -36 -13 0
-114 -88 0
-114 24 0
-114 -43 0
-114 -19 0
-114 83 0
-114 23 0
-114 60 0
-114 -98 0
-114 96 0
-114 95 0
114 88 -24 43 19 -83 -23 -60 98 -96 -95 0
-115 67 0
-115 -30 0
-115 -72 0
-115 -88 0
-115 29 0
-115 -87 0
-115 79 0
-115 -27 0
-115 74 0
-115 -36 0
115 -67 30 72 88 -29 87 -79 27 -74 36 0
-116 -17 0
-116 -39 0
-116 -29 0
-116 -52 0
-116 -60 0
-116 -22 0
-116 -33 0
-116 -55 0
-116 -59 0
-116 -90 0
116 17 39 29 52 60 22 33 55 59 90 0
-117 39 0
-117 4 0
-117 -54 0
-117 67 0
-117 -40 0
-117 -1 0
-117 -24 0
-117 41 0
-117 -82 0
-117 27 0
117 -39 -4 54 -67 40 1 24 -41 82 -27 0
-118 -44 0
-118 55 0
-118 28 0
-118 -78 0
-118 -13 0
-118 80 0
-118 -100 0
-118 30 0
-118 -54 0
-118 59 0
118 44 -55 -28 78 13 -80 100 -30 54 -59 0
-119 13 0
-119 14 0
-119 18 0
-119 32 0
-119 -47 0
-119 15 0
-119 9 0
-119 -76 0
-119 -20 0
-119 49 0
119 -13 -14 -18 -32 47 -15 -9 76 20 -49 0
-120 82 0
-120 71 0
-120 -30 0
-120 91 0
-120 -19 0
-120 100 0
-120 -46 0
-120 70 0
-120 49 0
-120 2 0
120 -82 -71 30 -91 19 -100 46 -70 -49 -2 0
111 112 113 114 115 116 117 118 119 120 0
-121 -83 0
-121 -80 0
-121 -27 0
-121 -77 0
-121 41 0
-121 55 0
-121 74 0
-121 -46 0
-121 -16 0
-121 -89 0
121 83 80 27 77 -41 -55 -74 46 16 89 0
-122 -75 0
-122 68 0
-122 35 0
-122 89 0
-122 54 0
-122 -5 0
-122 -69 0
-122 -28 0
-122 22 0
-122 55 0
122 75 -68 -35 -89 -54 5 69 28 -22 -55 0
-123 22 0
-123 -42 0
-123 12 0
-123 -13 0
-123 71 0
-123 57 0
-123 -28 0
-123 -10 0
-123 48 0
-123 83 0
123 -22 42 -12 13 -71 -57 28 10 -48 -83 0
-124 -80 0
-124 -38 0
-124 -74 0
-124 5 0
-124 -34 0
-124 -94 0
-124 79 0
-124 -96 0
-124 20 0
-124 -43 0
124 80 38 74 -5 34 94 -79 96 -20 43 0
-125 2 0
-125 -74 0
-125 -15 0
-125 -51 0
-125 37 0
-125 39 0
-125 -79 0
-125 -60 0
-125 -97 0
-125 69 0
125 -2 74 15 51 -37 -39 79 60 97 -69 0
-126 18 0
-126 30 0
-126 62 0
-126 2 0
-126 -74 0
-126 10 0
-126 -42 0
-126 -55 0
-126 45 0
-126 43 0
126 -18 -30 -62 -2 74 -10 42 55 -45 -43 0
-127 68 0
-127 36 0
-127 -41 0
-127 86 0
-127 54 0
-127 56 0
-127 -67 0
-127 95 0
-127 25 0
-127 -43 0
127 -68 -36 41 -86 -54 -56 67 -95 -25 43 0
-128 37 0
-128 55 0
-128 5 0
-128 -28 0
-128 66 0
-128 13 0
-128 -88 0
-128 -18 0
-128 -98 0
-128 -99 0
128 -37 -55 -5 28 -66 -13 88 18 98 99 0
-129 -62 0
-129 -13 0
-129 -65 0
-129 64 0
-129 -91 0
-129 24 0
-129 -66 0
-129 42 0
-129 -69 0
-129 -37 0
129 62 13 65 -64 91 -24 66 -42 69 37 0
-130 6 0
-130 71 0
-130 73 0
-130 -30 0
-130 36 0
-130 -45 0
-130 -19 0
-130 52 0
-130 -11 0
-130 -75 0
130 -6 -71 -73 30 -36 45 19 -52 11 75 0
121 122 123 124 125 126 127 128 129 130 0
-131 35 0
-131 88 0
-131 -9 0
-131 37 0
-131 -95 0
-131 4 0
-131 -60 0
-131 -42 0
-131 -67 0
-131 90 0
131 -35 -88 9 -37 95 -4 60 42 67 -90 0
-132 77 0
-132 23 0
-132 17 0
-132 81 0
-132 -20 0
-132 86 0
-132 -16 0
-132 -56 0
-132 -88 0
-132 -70 0
132 -77 -23 -17 -81 20 -86 16 56 88 70 0
-133 -71 0
-133 83 0
-133 -42 0
-133 -92 0
-133 40 0
-133 96 0
-133 57 0
-133 -100 0
-133 -62 0
-133 -5 0
133 71 -83 42 92 -40 -96 -57 100 62 5 0
-134 -49 0
-134 54 0
-134 -5 0
-134 11 0
-134 -2 0
-134 74 0
-134 83 0
-134 -46 0
-134 64 0
-134 -18 0
134 49 -54 5 -11 2 -74 -83 46 -64 18 0
-135 -42 0
-135 -98 0
-135 -58 0
-135 -9 0
-135 -3 0
-135 25 0
-135 -24 0
-135 64 0
-135 30 0
-135 23 0
135 42 98 58 9 3 -25 24 -64 -30 -23 0
-136 -14 0
-136 -50 0
-136 76 0
-136 -35 0
-136 -9 0
-136 37 0
-136 -55 0
-136 13 0
-136 15 0
-136 79 0
136 14 50 -76 35 9 -37 55 -13 -15 -79 0
-137 -18 0
-137 -68 0
-137 65 0
-137 -83 0
-137 92 0
-137 63 0
-137 -41 0
-137 96 0
-137 -71 0
-137 -50 0
137 18 68 -65 83 -92 -63 41 -96 71 50 0
-138 26 0
-138 -7 0
-138 -62 0
-138 23 0
-138 -73 0
-138 -42 0
-138 -97 0
-138 -91 0
-138 71 0
-138 17 0
138 -26 7 62 -23 73 42 97 91 -71 -17 0
-139 -61 0
-139 20 0
-139 -47 0
-139 69 0
-139 31 0
-139 58 0
-139 78 0
-139 -9 0
-139 -23 0
-139 24 0
139 61 -20 47 -69 -31 -58 -78 9 23 -24 0
-140 7 0
-140 63 0
-140 55 0
-140 -69 0
-140 -71 0
-140 96 0
-140 91 0
-140 9 0
-140 -16 0
-140 97 0
140 -7 -63 -55 69 71 -96 -91 -9 16 -97 0
131 132 133 134 135 136 137 138 139 140 0
-141 83 0
-141 -6 0
-141 98 0
-141 -22 0
-141 -15 0
-141 -5 0
-141 -89 0
-141 85 0
-141 -65 0
-141 4 0
141 -83 6 -98 22 15 5 89 -85 65 -4 0
-142 -45 0
-142 46 0
-142 28 0
-142 -35 0
-142 -52 0
-142 2 0
-142 -18 0
-142 4 0
-142 30 0
-142 -96 0
142 45 -46 -28 35 52 -2 18 -4 -30 96 0
-143 -87 0
-143 -91 0
-143 -67 0
-143 -5 0
-143 -22 0
-143 80 0
-143 -12 0
-143 9 0
-143 -20 0
-143 76 0
143 87 91 67 5 22 -80 12 -9 20 -76 0
-144 -58 0
-144 48 0
-144 61 0
-144 42 0
-144 4 0
-144 20 0
-144 56 0
-144 66 0
-144 16 0
-144 -35 0
144 58 -48 -61 -42 -4 -20 -56 -66 -16 35 0
-145 100 0
-145 -29 0
-145 -14 0
-145 -3 0
-145 -30 0
-145 -81 0
-145 66 0
-145 28 0
-145 -83 0
-145 31 0
145 -100 29 14 3 30 81 -66 -28 83 -31 0
-146 72 0
-146 -18 0
-146 25 0
-146 -81 0
-146 79 0
-146 -29 0
-146 27 0
-146 59 0
-146 -52 0
-146 2 0
146 -72 18 -25 81 -79 29 -27 -59 52 -2 0
-147 -71 0
-147 56 0
-147 -86 0
-147 -100 0
-147 -9 0
-147 -31 0
-147 73 0
-147 90 0
-147 66 0
-147 -24 0
147 71 -56 86 100 9 31 -73 -90 -66 24 0
-148 53 0
-148 -77 0
-148 -3 0
-148 70 0
-148 86 0
-148 64 0
-148 -54 0
-148 33 0
-148 -62 0
-148 98 0
148 -53 77 3 -70 -86 -64 54 -33 62 -98 0
-149 -1 0
-149 -75 0
-149 12 0
-149 -67 0
-149 -28 0
-149 64 0
-149 9 0
-149 -60 0
-149 85 0
-149 -68 0
149 1 75 -12 67 28 -64 -9 60 -85 68 0
-150 -99 0
-150 -6 0
-150 55 0
-150 12 0
-150 96 0
-150 -68 0
-150 61 0
-150 98 0
-150 45 0
-150 71 0
150 99 6 -55 -12 -96 68 -61 -98 -45 -71 0
141 142 143 144 145 146 147 148 149 150 0
-151 -90 0
-151 63 0
-151 30 0
-151 -57 0
-151 100 0
-151 74 0
-151 -29 0
-151 -93 0
-151 39 0
-151 -20 0
151 90 -63 -30 57 -100 -74 29 93 -39 20 0
-152 -33 0
-152 90 0
-152 -67 0
-152 -99 0
-152 39 0
-152 -15 0
-152 -54 0
-152 -55 0
-152 -59 0
-152 53 0
152 33 -90 67 99 -39 15 54 55 59 -53 0
-153 33 0
-153 39 0
-153 -15 0
-153 23 0
-153 48 0
-153 -66 0
-153 64 0
-153 -63 0
-153 -76 0
-153 -7 0
153 -33 -39 15 -23 -48 66 -64 63 76 7 0
-154 74 0
-154 16 0
-154 -97 0
-154 -83 0
-154 21 0
-154 51 0
-154 42 0
-154 -92 0
-154 68 0
-154 -20 0
154 -74 -16 97 83 -21 -51 -42 92 -68 20 0
-155 90 0
-155 5 0
-155 59 0
-155 20 0
-155 -55 0
-155 94 0
-155 -26 0
-155 -98 0
-155 -80 0
-155 54 0
155 -90 -5 -59 -20 55 -94 26 98 80 -54 0
-156 29 0
-156 23 0
-156 15 0
-156 53 0
-156 35 0
-156 8 0
-156 57 0
-156 -2 0
-156 37 0
-156 33 0
156 -29 -23 -15 -53 -35 -8 -57 2 -37 -33 0
-157 -75 0
-157 71 0
-157 14 0
-157 85 0
-157 81 0
-157 -73 0
-157 74 0
-157 -6 0
-157 -25 0
-157 43 0
157 75 -71 -14 -85 -81 73 -74 6 25 -43 0
-158 -85 0
-158 83 0
-158 -18 0
-158 -24 0
-158 -79 0
-158 97 0
-158 -42 0
-158 46 0
-158 71 0
-158 64 0
158 85 -83 18 24 79 -97 42 -46 -71 -64 0
-159 54 0
-159 -91 0
-159 58 0
-159 -86 0
-159 -30 0
-159 85 0
-159 78 0
-159 72 0
-159 32 0
-159 63 0
159 -54 91 -58 86 30 -85 -78 -72 -32 -63 0
-160 -37 0
-160 5 0
-160 60 0
-160 -64 0
-160 -40 0
-160 57 0
-160 78 0
-160 -17 0
-160 2 0
-160 75 0
160 37 -5 -60 64 40 -57 -78 17 -2 -75 0
151 152 153 154 155 156 157 158 159 160 0
-161 -48 0
-161 42 0
-161 40 0
-161 -7 0
-161 -25 0
-161 -15 0
-161 -13 0
-161 20 0
-161 39 0
-161 92 0
161 48 -42 -40 7 25 15 13 -20 -39 -92 0
-162 -27 0
-162 -46 0
-162 94 0
-162 -38 0
-162 55 0
-162 87 0
-162 24 0
-162 15 0
-162 49 0
-162 42 0
162 27 46 -94 38 -55 -87 -24 -15 -49 -42 0
-163 20 0
-163 83 0
-163 56 0
-163 53 0
-163 76 0
-163 -93 0
-163 -1 0
-163 94 0
-163 -16 0
-163 -37 0
163 -20 -83 -56 -53 -76 93 1 -94 16 37 0
-164 75 0
-164 14 0
-164 78 0
-164 54 0
-164 38 0
-164 63 0
-164 -62 0
-164 67 0
-164 86 0
-164 15 0
164 -75 -14 -78 -54 -38 -63 62 -67 -86 -15 0
-165 -81 0
-165 -59 0
-165 -22 0
-165 60 0
-165 -99 0
-165 3 0
-165 83 0
-165 -30 0
-165 15 0
-165 96 0
165 81 59 22 -60 99 -3 -83 30 -15 -96 0
-166 88 0
-166 -52 0
-166 31 0
-166 78 0
-166 -17 0
-166 44 0
-166 -70 0
-166 33 0
-166 18 0
-166 -49 0
166 -88 52 -31 -78 17 -44 70 -33 -18 49 0
-167 23 0
-167 69 0
-167 -79 0
-167 13 0
-167 -77 0
-167 -96 0
-167 -78 0
-167 38 0
-167 -11 0
-167 -53 0
167 -23 -69 79 -13 77 96 78 -38 11 53 0
-168 -2 0
-168 7 0
-168 75 0
-168 56 0
-168 96 0
-168 57 0
-168 13 0
-168 1 0
-168 34 0
-168 100 0
168 2 -7 -75 -56 -96 -57 -13 -1 -34 -100 0
-169 30 0
-169 2 0
-169 -26 0
-169 -81 0
-169 27 0
-169 3 0
-169 -100 0
-169 -95 0
-169 12 0
-169 -51 0
169 -30 -2 26 81 -27 -3 100 95 -12 51 0
-170 -17 0
-170 -20 0
-170 -87 0
-170 62 0
-170 13 0
-170 55 0
-170 -57 0
-170 83 0
-170 49 0
-170 65 0
170 17 20 87 -62 -13 -55 57 -83 -49 -65 0
161 162 163 164 165 166 167 168 169 170 0
-171 31 0
-171 -66 0
-171 -29 0
-171 -81 0
-171 93 0
-171 -94 0
-171 -56 0
-171 87 0
-171 49 0
-171 98 0
171 -31 66 29 81 -93 94 56 -87 -49 -98 0
-172 -54 0
-172 59 0
-172 -94 0
-172 85 0
-172 -20 0
-172 -40 0
-172 39 0
-172 16 0
-172 19 0
-172 -7 0
172 54 -59 94 -85 20 40 -39 -16 -19 7 0
-173 -31 0
-173 -83 0
-173 70 0
-173 -62 0
-173 77 0
-173 60 0
-173 -54 0
-173 -17 0
-173 -55 0
-173 93 0
173 31 83 -70 62 -77 -60 54 17 55 -93 0
-174 -98 0
-174 10 0
-174 65 0
-174 83 0
-174 -66 0
-174 -26 0
-174 -17 0
-174 -15 0
-174 -77 0
-174 -72 0
174 98 -10 -65 -83 66 26 17 15 77 72 0
-175 -73 0
-175 -71 0
-175 17 0
-175 2 0
-175 -86 0
-175 95 0
-175 35 0
-175 -79 0
-175 9 0
-175 -58 0
175 73 71 -17 -2 86 -95 -35 79 -9 58 0
-176 34 0
-176 -30 0
-176 70 0
-176 15 0
-176 14 0
-176 -79 0
-176 -74 0
-176 -94 0
-176 -42 0
-176 -18 0
176 -34 30 -70 -15 -14 79 74 94 42 18 0
-177 -78 0
-177 66 0
-177 -52 0
-177 77 0
-177 51 0
-177 -86 0
-177 82 0
-177 -23 0
-177 42 0
-177 -71 0
177 78 -66 52 -77 -51 86 -82 23 -42 71 0
-178 100 0
-178 92 0
-178 -75 0
-178 81 0
-178 -38 0
-178 -5 0
-178 71 0
-178 -79 0
-178 -29 0
-178 3 0
178 -100 -92 75 -81 38 5 -71 79 29 -3 0
-179 64 0
-179 -17 0
-179 31 0
-179 36 0
-179 -13 0
-179 -61 0
-179 56 0
-179 -83 0
-179 -76 0
-179 -89 0
179 -64 17 -31 -36 13 61 -56 83 76 89 0
-180 -77 0
-180 87 0
-180 41 0
-180 29 0
-180 33 0
-180 68 0
-180 -86 0
-180 83 0
-180 -80 0
-180 -95 0
180 77 -87 -41 -29 -33 -68 86 -83 80 95 0
171 172 173 174 175 176 177 178 179 180 0
-181 -69 0
-181 51 0
-181 28 0
-181 23 0
-181 18 0
-181 8 0
-181 85 0
-181 -44 0
-181 -19 0
-181 -80 0
181 69 -51 -28 -23 -18 -8 -85 44 19 80 0
-182 22 0
-182 1 0
-182 31 0
-182 6 0
-182 26 0
-182 -88 0
-182 -72 0
-182 -29 0
-182 45 0
-182 19 0
182 -22 -1 -31 -6 -26 88 72 29 -45 -19 0
-183 -64 0
-183 -100 0
-183 -78 0
-183 21 0
-183 -92 0
-183 -52 0
-183 -50 0
-183 79 0
-183 -86 0
-183 46 0
183 64 100 78 -21 92 52 50 -79 86 -46 0
-184 40 0
-184 -21 0
-184 56 0
-184 -44 0
-184 -97 0
-184 88 0
-184 -81 0
-184 -26 0
-184 -35 0
-184 -75 0
184 -40 21 -56 44 97 -88 81 26 35 75 0
-185 -4 0
-185 19 0
-185 -20 0
-185 31 0
-185 -41 0
-185 51 0
-185 58 0
-185 -88 0
-185 25 0
-185 24 0
185 4 -19 20 -31 41 -51 -58 88 -25 -24 0
-186 -57 0
-186 -96 0
-186 35 0
-186 -11 0
-186 9 0
-186 -5 0
-186 76 0
-186 -69 0
-186 -39 0
-186 13 0
186 57 96 -35 11 -9 5 -76 69 39 -13 0
-187 24 0
-187 -89 0
-187 -81 0
-187 55 0
-187 75 0
-187 -22 0
-187 97 0
-187 -84 0
-187 -96 0
-187 2 0
187 -24 89 81 -55 -75 22 -97 84 96 -2 0
-188 -56 0
-188 20 0
-188 -98 0
-188 -27 0
-188 -8 0
-188 -21 0
-188 23 0
-188 87 0
-188 44 0
-188 48 0
188 56 -20 98 27 8 21 -23 -87 -44 -48 0
-189 -67 0
-189 -89 0
-189 -4 0
-189 -76 0
-189 99 0
-189 -16 0
-189 23 0
-189 -5 0
-189 48 0
-189 88 0
189 67 89 4 76 -99 16 -23 5 -48 -88 0
-190 -95 0
-190 -98 0
-190 -94 0
-190 -85 0
-190 73 0
-190 -84 0
-190 39 0
-190 -41 0
-190 91 0
-190 21 0
190 95 98 94 85 -73 84 -39 41 -91 -21 0
181 182 183 184 185 186 187 188 189 190 0
-191 -92 0
-191 39 0
-191 54 0
-191 -50 0
-191 -49 0
-191 -51 0
-191 98 0
-191 -71 0
-191 35 0
-191 -66 0
191 92 -39 -54 50 49 51 -98 71 -35 66 0
-192 42 0
-192 79 0
-192 -68 0
-192 -27 0
-192 17 0
-192 -38 0
-192 -90 0
-192 66 0
-192 43 0
-192 -94 0
192 -42 -79 68 27 -17 38 90 -66 -43 94 0
-193 89 0
-193 -23 0
-193 -21 0
-193 -45 0
-193 -12 0
-193 60 0
-193 58 0
-193 96 0
-193 20 0
-193 -28 0
193 -89 23 21 45 12 -60 -58 -96 -20 28 0
-194 98 0
-194 40 0
-194 -58 0
-194 11 0
-194 72 0
-194 -53 0
-194 99 0
-194 -77 0
-194 -73 0
-194 91 0
194 -98 -40 58 -11 -72 53 -99 77 73 -91 0
-195 59 0
-195 -53 0
-195 36 0
-195 -47 0
-195 -45 0
-195 13 0
-195 -29 0
-195 -41 0
-195 -15 0
-195 30 0
195 -59 53 -36 47 45 -13 29 41 15 -30 0
-196 -77 0
-196 -61 0
-196 75 0
-196 22 0
-196 74 0
-196 -67 0
-196 78 0
-196 -45 0
-196 80 0
-196 -88 0
196 77 61 -75 -22 -74 67 -78 45 -80 88 0
-197 57 0
-197 -98 0
-197 -80 0
-197 52 0
-197 45 0
-197 -18 0
-197 -25 0
-197 -84 0
-197 -6 0
-197 -33 0
197 -57 98 80 -52 -45 18 25 84 6 33 0
-198 3 0
-198 -55 0
-198 -68 0
-198 -93 0
-198 -78 0
-198 -23 0
-198 34 0
-198 84 0
-198 73 0
-198 7 0
198 -3 55 68 93 78 23 -34 -84 -73 -7 0
-199 -8 0
-199 -79 0
-199 -89 0
-199 7 0
-199 30 0
-199 -23 0
-199 -85 0
-199 -57 0
-199 -13 0
-199 -9 0
199 8 79 89 -7 -30 23 85 57 13 9 0
-200 5 0
-200 -28 0
-200 99 0
-200 63 0
-200 25 0
-200 -20 0
-200 80 0
-200 81 0
-200 52 0
-200 42 0
200 -5 28 -99 -63 -25 20 -80 -81 -52 -42 0
191 192 193 194 195 196 197 198 199 200 0
